WARNING: for repeatability, setting FPU to use double precision
============================[ Problem Statistics ]=============================
|                                                                             |
|  Number of variables:            50                                         |
|  Number of clauses:             218                                         |
|  Parse time:                   0.00 s                                       |
|                                                                             |
============================[ Search Statistics ]==============================
| Conflicts |          ORIGINAL         |          LEARNT          | Progress |
|           |    Vars  Clauses Literals |    Limit  Clauses Lit/Cl |          |
===============================================================================
===============================================================================
restarts              : 1
conflicts             : 26             (18705 /sec)
decisions             : 43             (0.00 % random) (30935 /sec)
propagations          : 383            (275540 /sec)
conflict literals     : 111            (13.95 % deleted)
Memory used           : 20.00 MB
CPU time              : 0.00139 s

SATISFIABLE
